
Log started (V11.0.0) Sat May 17 03:45:17 2008

Tried aggregator 1 time.
Reduced MIP has 510 rows, 5001 columns, and 10010 nonzeros.
Presolve time =    0.03 sec.
Clique table members: 500.
MIP emphasis: balance optimality and feasibility.
MIP search method: dynamic search.
Parallel mode: none, using 1 thread.
Root relaxation solution time =    0.16 sec.

        Nodes                                         Cuts/
   Node  Left     Objective  IInf  Best Integer     Best Node    ItCnt     Gap

*     0+    0                        55076.0000     5070.3000      541   90.79%
*     0+    0                         5087.0000     5070.3000      541    0.33%
      0     0     5071.0000    20     5087.0000      Fract: 8      560    0.31%
*     0+    0                         5086.0000     5071.0000      560    0.29%
      0     0     5071.0000    20     5086.0000     Covers: 1      572    0.29%
      0     0     5071.0000    20     5086.0000     Covers: 3      608    0.29%
      0     2     5071.0000    20     5086.0000     5071.0000      608    0.29%
    100    99     5072.0000    12     5086.0000     5071.0000     3252    0.29%
*   200+  177                         5083.0000     5071.0000     9507    0.24%
    200   178     5072.4729    21     5083.0000     5071.0000     9507    0.24%
    300   265     5073.0000    13     5083.0000     5071.0000    15511    0.24%
    400   351     5074.0000    14     5083.0000     5071.0000    22381    0.24%
    500   408     5081.7427    19     5083.0000     5071.0000    34044    0.24%
*   531+  376                         5082.0000     5071.0000    36668    0.22%
*   531+  376                         5081.0000     5071.0000    36668    0.20%
*   533+  252                         5079.0000     5072.0000    38224    0.14%
*   533+  168                         5078.0000     5072.0000    38224    0.12%
*   533+  112                         5077.0000     5072.0000    38224    0.10%
    600   125     5074.0000    12     5077.0000     5072.0000    38954    0.10%
*   633+   72                         5074.0000     5072.0000    39452    0.04%
    700   112     5072.0000    16     5074.0000     5072.0000    40582    0.04%
    800   183     5073.0000    16     5074.0000     5072.0000    42683    0.04%
*   833+   82                         5073.0000     5072.0000    43573    0.02%
*   833+    1                         5072.0000     5072.0000    43573    0.00%

Cover cuts applied:  25
Mixed integer rounding cuts applied:  1
Gomory fractional cuts applied:  3

Solution pool: 12 solutions saved.

MIP - Integer optimal solution:  Objective = 5.0720000000e+003
Solution time =   24.84 sec.  Iterations = 43573  Nodes = 833


Incumbent solution
Variable Name           Solution Value
Cmax                       5072.000000
X_1_1                         1.000000
X_2_9                         1.000000
X_3_1                         1.000000
X_4_6                         1.000000
X_5_4                         1.000000
X_6_8                         1.000000
X_7_10                        1.000000
X_8_2                         1.000000
X_9_1                         1.000000
X_10_7                        1.000000
X_11_6                        1.000000
X_12_2                        1.000000
X_13_4                        1.000000
X_14_8                        1.000000
X_15_2                        1.000000
X_16_7                        1.000000
X_17_9                        1.000000
X_18_6                        1.000000
X_19_6                        1.000000
X_20_3                        1.000000
X_21_5                        1.000000
X_22_5                        1.000000
X_23_3                        1.000000
X_24_2                        1.000000
X_25_7                        1.000000
X_26_6                        1.000000
X_27_6                        1.000000
X_28_2                        1.000000
X_29_2                        1.000000
X_30_10                       1.000000
X_31_2                        1.000000
X_32_7                        1.000000
X_33_6                        1.000000
X_34_8                        1.000000
X_35_6                        1.000000
X_36_7                        1.000000
X_37_4                        1.000000
X_38_6                        1.000000
X_39_7                        1.000000
X_40_10                       1.000000
X_41_1                        1.000000
X_42_2                        1.000000
X_43_5                        1.000000
X_44_5                        1.000000
X_45_6                        1.000000
X_46_1                        1.000000
X_47_5                        1.000000
X_48_5                        1.000000
X_49_6                        1.000000
X_50_7                        1.000000
X_51_4                        1.000000
X_52_1                        1.000000
X_53_2                        1.000000
X_54_5                        1.000000
X_55_2                        1.000000
X_56_2                        1.000000
X_57_2                        1.000000
X_58_6                        1.000000
X_59_7                        1.000000
X_60_5                        1.000000
X_61_7                        1.000000
X_62_2                        1.000000
X_63_8                        1.000000
X_64_4                        1.000000
X_65_6                        1.000000
X_66_1                        1.000000
X_67_9                        1.000000
X_68_4                        1.000000
X_69_8                        1.000000
X_70_4                        1.000000
X_71_8                        1.000000
X_72_5                        1.000000
X_73_4                        1.000000
X_74_7                        1.000000
X_75_7                        1.000000
X_76_1                        1.000000
X_77_7                        1.000000
X_78_10                       1.000000
X_79_5                        1.000000
X_80_6                        1.000000
X_81_6                        1.000000
X_82_9                        1.000000
X_83_9                        1.000000
X_84_5                        1.000000
X_85_4                        1.000000
X_86_8                        1.000000
X_87_3                        1.000000
X_88_7                        1.000000
X_89_9                        1.000000
X_90_4                        1.000000
X_91_1                        1.000000
X_92_2                        1.000000
X_93_10                       1.000000
X_94_10                       1.000000
X_95_9                        1.000000
X_96_5                        1.000000
X_97_3                        1.000000
X_98_10                       1.000000
X_99_3                        1.000000
X_100_7                       1.000000
X_101_6                       1.000000
X_102_7                       1.000000
X_103_3                       1.000000
X_104_6                       1.000000
X_105_3                       1.000000
X_106_1                       1.000000
X_107_3                       1.000000
X_108_9                       1.000000
X_109_10                      1.000000
X_110_5                       1.000000
X_111_10                      1.000000
X_112_5                       1.000000
X_113_2                       1.000000
X_114_3                       1.000000
X_115_2                       1.000000
X_116_2                       1.000000
X_117_2                       1.000000
X_118_8                       1.000000
X_119_8                       1.000000
X_120_8                       1.000000
X_121_6                       1.000000
X_122_10                      1.000000
X_123_10                      1.000000
X_124_9                       1.000000
X_125_6                       1.000000
X_126_4                       1.000000
X_127_3                       1.000000
X_128_7                       1.000000
X_129_6                       1.000000
X_130_5                       1.000000
X_131_6                       1.000000
X_132_9                       1.000000
X_133_1                       1.000000
X_134_6                       1.000000
X_135_3                       1.000000
X_136_10                      1.000000
X_137_8                       1.000000
X_138_3                       1.000000
X_139_7                       1.000000
X_140_9                       1.000000
X_141_9                       1.000000
X_142_7                       1.000000
X_143_4                       1.000000
X_144_3                       1.000000
X_145_6                       1.000000
X_146_2                       1.000000
X_147_5                       1.000000
X_148_3                       1.000000
X_149_10                      1.000000
X_150_9                       1.000000
X_151_3                       1.000000
X_152_5                       1.000000
X_153_10                      1.000000
X_154_4                       1.000000
X_155_5                       1.000000
X_156_1                       1.000000
X_157_5                       1.000000
X_158_9                       1.000000
X_159_7                       1.000000
X_160_3                       1.000000
X_161_7                       1.000000
X_162_8                       1.000000
X_163_4                       1.000000
X_164_1                       1.000000
X_165_6                       1.000000
X_166_7                       1.000000
X_167_10                      1.000000
X_168_10                      1.000000
X_169_8                       1.000000
X_170_9                       1.000000
X_171_9                       1.000000
X_172_4                       1.000000
X_173_3                       1.000000
X_174_3                       1.000000
X_175_8                       1.000000
X_176_7                       1.000000
X_177_10                      1.000000
X_178_3                       1.000000
X_179_4                       1.000000
X_180_1                       1.000000
X_181_10                      1.000000
X_182_1                       1.000000
X_183_9                       1.000000
X_184_9                       1.000000
X_185_10                      1.000000
X_186_7                       1.000000
X_187_5                       1.000000
X_188_5                       1.000000
X_189_7                       1.000000
X_190_8                       1.000000
X_191_6                       1.000000
X_192_3                       1.000000
X_193_6                       1.000000
X_194_6                       1.000000
X_195_2                       1.000000
X_196_1                       1.000000
X_197_3                       1.000000
X_198_9                       1.000000
X_199_4                       1.000000
X_200_4                       1.000000
X_201_1                       1.000000
X_202_8                       1.000000
X_203_1                       1.000000
X_204_3                       1.000000
X_205_7                       1.000000
X_206_7                       1.000000
X_207_4                       1.000000
X_208_1                       1.000000
X_209_10                      1.000000
X_210_2                       1.000000
X_211_9                       1.000000
X_212_2                       1.000000
X_213_3                       1.000000
X_214_10                      1.000000
X_215_1                       1.000000
X_216_4                       1.000000
X_217_9                       1.000000
X_218_4                       1.000000
X_219_1                       1.000000
X_220_2                       1.000000
X_221_5                       1.000000
X_222_10                      1.000000
X_223_9                       1.000000
X_224_2                       1.000000
X_225_10                      1.000000
X_226_4                       1.000000
X_227_5                       1.000000
X_228_5                       1.000000
X_229_3                       1.000000
X_230_1                       1.000000
X_231_7                       1.000000
X_232_9                       1.000000
X_233_9                       1.000000
X_234_5                       1.000000
X_235_4                       1.000000
X_236_2                       1.000000
X_237_10                      1.000000
X_238_7                       1.000000
X_239_1                       1.000000
X_240_6                       1.000000
X_241_8                       1.000000
X_242_7                       1.000000
X_243_6                       1.000000
X_244_2                       1.000000
X_245_5                       1.000000
X_246_8                       1.000000
X_247_5                       1.000000
X_248_4                       1.000000
X_249_8                       1.000000
X_250_3                       1.000000
X_251_10                      1.000000
X_252_2                       1.000000
X_253_2                       1.000000
X_254_10                      1.000000
X_255_5                       1.000000
X_256_9                       1.000000
X_257_8                       1.000000
X_258_10                      1.000000
X_259_2                       1.000000
X_260_6                       1.000000
X_261_4                       1.000000
X_262_1                       1.000000
X_263_6                       1.000000
X_264_2                       1.000000
X_265_9                       1.000000
X_266_7                       1.000000
X_267_2                       1.000000
X_268_1                       1.000000
X_269_3                       1.000000
X_270_4                       1.000000
X_271_7                       1.000000
X_272_8                       1.000000
X_273_7                       1.000000
X_274_8                       1.000000
X_275_9                       1.000000
X_276_4                       1.000000
X_277_1                       1.000000
X_278_2                       1.000000
X_279_2                       1.000000
X_280_5                       1.000000
X_281_2                       1.000000
X_282_8                       1.000000
X_283_9                       1.000000
X_284_5                       1.000000
X_285_10                      1.000000
X_286_1                       1.000000
X_287_10                      1.000000
X_288_4                       1.000000
X_289_10                      1.000000
X_290_1                       1.000000
X_291_2                       1.000000
X_292_8                       1.000000
X_293_6                       1.000000
X_294_10                      1.000000
X_295_1                       1.000000
X_296_7                       1.000000
X_297_4                       1.000000
X_298_10                      1.000000
X_299_1                       1.000000
X_300_1                       1.000000
X_301_6                       1.000000
X_302_4                       1.000000
X_303_1                       1.000000
X_304_8                       1.000000
X_305_7                       1.000000
X_306_5                       1.000000
X_307_7                       1.000000
X_308_1                       1.000000
X_309_10                      1.000000
X_310_10                      1.000000
X_311_1                       1.000000
X_312_10                      1.000000
X_313_5                       1.000000
X_314_9                       1.000000
X_315_2                       1.000000
X_316_8                       1.000000
X_317_3                       1.000000
X_318_3                       1.000000
X_319_7                       1.000000
X_320_10                      1.000000
X_321_5                       1.000000
X_322_10                      1.000000
X_323_7                       1.000000
X_324_10                      1.000000
X_325_9                       1.000000
X_326_3                       1.000000
X_327_2                       1.000000
X_328_3                       1.000000
X_329_10                      1.000000
X_330_4                       1.000000
X_331_3                       1.000000
X_332_8                       1.000000
X_333_6                       1.000000
X_334_3                       1.000000
X_335_1                       1.000000
X_336_7                       1.000000
X_337_3                       1.000000
X_338_9                       1.000000
X_339_6                       1.000000
X_340_4                       1.000000
X_341_4                       1.000000
X_342_1                       1.000000
X_343_4                       1.000000
X_344_9                       1.000000
X_345_8                       1.000000
X_346_7                       1.000000
X_347_6                       1.000000
X_348_1                       1.000000
X_349_6                       1.000000
X_350_1                       1.000000
X_351_4                       1.000000
X_352_10                      1.000000
X_353_9                       1.000000
X_354_10                      1.000000
X_355_9                       1.000000
X_356_5                       1.000000
X_357_5                       1.000000
X_358_3                       1.000000
X_359_4                       1.000000
X_360_6                       1.000000
X_361_2                       1.000000
X_362_8                       1.000000
X_363_8                       1.000000
X_364_6                       1.000000
X_365_2                       1.000000
X_366_2                       1.000000
X_367_6                       1.000000
X_368_1                       1.000000
X_369_5                       1.000000
X_370_2                       1.000000
X_371_9                       1.000000
X_372_4                       1.000000
X_373_10                      1.000000
X_374_5                       1.000000
X_375_10                      1.000000
X_376_8                       1.000000
X_377_4                       1.000000
X_378_6                       1.000000
X_379_3                       1.000000
X_380_9                       1.000000
X_381_3                       1.000000
X_382_5                       1.000000
X_383_1                       1.000000
X_384_3                       1.000000
X_385_3                       1.000000
X_386_8                       1.000000
X_387_2                       1.000000
X_388_4                       1.000000
X_389_9                       1.000000
X_390_5                       1.000000
X_391_8                       1.000000
X_392_3                       1.000000
X_393_3                       1.000000
X_394_6                       1.000000
X_395_8                       1.000000
X_396_8                       1.000000
X_397_8                       1.000000
X_398_10                      1.000000
X_399_4                       1.000000
X_400_5                       1.000000
X_401_10                      1.000000
X_402_7                       1.000000
X_403_8                       1.000000
X_404_7                       1.000000
X_405_7                       1.000000
X_406_7                       1.000000
X_407_1                       1.000000
X_408_8                       1.000000
X_409_9                       1.000000
X_410_3                       1.000000
X_411_3                       1.000000
X_412_4                       1.000000
X_413_7                       1.000000
X_414_9                       1.000000
X_415_1                       1.000000
X_416_2                       1.000000
X_417_3                       1.000000
X_418_3                       1.000000
X_419_8                       1.000000
X_420_5                       1.000000
X_421_7                       1.000000
X_422_9                       1.000000
X_423_4                       1.000000
X_424_10                      1.000000
X_425_8                       1.000000
X_426_5                       1.000000
X_427_2                       1.000000
X_428_5                       1.000000
X_429_6                       1.000000
X_430_3                       1.000000
X_431_9                       1.000000
X_432_5                       1.000000
X_433_10                      1.000000
X_434_1                       1.000000
X_435_9                       1.000000
X_436_8                       1.000000
X_437_3                       1.000000
X_438_8                       1.000000
X_439_5                       1.000000
X_440_5                       1.000000
X_441_2                       1.000000
X_442_4                       1.000000
X_443_6                       1.000000
X_444_3                       1.000000
X_445_5                       1.000000
X_446_2                       1.000000
X_447_1                       1.000000
X_448_5                       1.000000
X_449_7                       1.000000
X_450_9                       1.000000
X_451_2                       1.000000
X_452_9                       1.000000
X_453_1                       1.000000
X_454_7                       1.000000
X_455_6                       1.000000
X_456_9                       1.000000
X_457_10                      1.000000
X_458_7                       1.000000
X_459_4                       1.000000
X_460_4                       1.000000
X_461_1                       1.000000
X_462_3                       1.000000
X_463_8                       1.000000
X_464_6                       1.000000
X_465_3                       1.000000
X_466_9                       1.000000
X_467_1                       1.000000
X_468_8                       1.000000
X_469_7                       1.000000
X_470_5                       1.000000
X_471_9                       1.000000
X_472_10                      1.000000
X_473_9                       1.000000
X_474_2                       1.000000
X_475_4                       1.000000
X_476_4                       1.000000
X_477_8                       1.000000
X_478_9                       1.000000
X_479_4                       1.000000
X_480_1                       1.000000
X_481_5                       1.000000
X_482_4                       1.000000
X_483_1                       1.000000
X_484_4                       1.000000
X_485_8                       1.000000
X_486_6                       1.000000
X_487_1                       1.000000
X_488_8                       1.000000
X_489_2                       1.000000
X_490_6                       1.000000
X_491_10                      1.000000
X_492_6                       1.000000
X_493_9                       1.000000
X_494_7                       1.000000
X_495_8                       1.000000
X_496_2                       1.000000
X_497_6                       1.000000
X_498_8                       1.000000
X_499_8                       1.000000
X_500_3                       1.000000
All other variables in the range 1-5001 are 0.
